sat
(
  (define-fun MemProv5 () Int
    7500)
  (define-fun MemProv10 () Int
    3750)
  (define-fun VM6Type () Int
    37)
  (define-fun VM5Type () Int
    26)
  (define-fun C2_VM3 () Int
    0)
  (define-fun PriceProv10 () Int
    128)
  (define-fun ProcProv7 () Int
    4)
  (define-fun C4_VM6 () Int
    0)
  (define-fun C2_VM2 () Int
    1)
  (define-fun ProcProv4 () Int
    2)
  (define-fun C3_VM10 () Int
    0)
  (define-fun ProcProv3 () Int
    2)
  (define-fun MemProv3 () Int
    3750)
  (define-fun C2_VM7 () Int
    0)
  (define-fun C2_VM9 () Int
    1)
  (define-fun C4_VM5 () Int
    0)
  (define-fun C3_VM2 () Int
    0)
  (define-fun MemProv7 () Int
    7500)
  (define-fun StorageProv1 () Int
    2000)
  (define-fun C3_VM9 () Int
    0)
  (define-fun C3_VM1 () Int
    0)
  (define-fun PriceProv4 () Int
    128)
  (define-fun C1_VM3 () Int
    1)
  (define-fun C5_VM6 () Int
    0)
  (define-fun C2_VM4 () Int
    1)
  (define-fun C1_VM5 () Int
    0)
  (define-fun VM8Type () Int
    26)
  (define-fun StorageProv3 () Int
    2000)
  (define-fun C5_VM1 () Int
    0)
  (define-fun VM1Type () Int
    37)
  (define-fun C4_VM8 () Int
    0)
  (define-fun C4_VM10 () Int
    0)
  (define-fun VM3Type () Int
    37)
  (define-fun StorageProv10 () Int
    2000)
  (define-fun PriceProv7 () Int
    252)
  (define-fun C5_VM9 () Int
    0)
  (define-fun C3_VM8 () Int
    0)
  (define-fun C4_VM7 () Int
    0)
  (define-fun VM9Type () Int
    37)
  (define-fun C4_VM4 () Int
    0)
  (define-fun C5_VM2 () Int
    0)
  (define-fun C4_VM1 () Int
    0)
  (define-fun MemProv4 () Int
    3750)
  (define-fun StorageProv9 () Int
    2000)
  (define-fun C4_VM2 () Int
    0)
  (define-fun C3_VM7 () Int
    0)
  (define-fun StorageProv6 () Int
    2000)
  (define-fun VM7Type () Int
    26)
  (define-fun C2_VM6 () Int
    0)
  (define-fun PriceProv9 () Int
    128)
  (define-fun StorageProv5 () Int
    2000)
  (define-fun MemProv2 () Int
    3750)
  (define-fun C2_VM8 () Int
    0)
  (define-fun C4_VM3 () Int
    0)
  (define-fun ProcProv6 () Int
    2)
  (define-fun StorageProv8 () Int
    2000)
  (define-fun StorageProv7 () Int
    2000)
  (define-fun PriceProv8 () Int
    252)
  (define-fun C5_VM10 () Int
    0)
  (define-fun C5_VM4 () Int
    0)
  (define-fun C4_VM9 () Int
    0)
  (define-fun C3_VM6 () Int
    0)
  (define-fun ProcProv8 () Int
    4)
  (define-fun C1_VM1 () Int
    1)
  (define-fun PriceProv6 () Int
    128)
  (define-fun VM4Type () Int
    37)
  (define-fun C1_VM8 () Int
    0)
  (define-fun VM10Type () Int
    37)
  (define-fun C1_VM2 () Int
    0)
  (define-fun C2_VM10 () Int
    0)
  (define-fun ProcProv2 () Int
    2)
  (define-fun C1_VM7 () Int
    0)
  (define-fun C3_VM5 () Int
    1)
  (define-fun C3_VM4 () Int
    0)
  (define-fun PriceProv1 () Int
    128)
  (define-fun C1_VM4 () Int
    0)
  (define-fun ProcProv1 () Int
    2)
  (define-fun C1_VM10 () Int
    1)
  (define-fun C3_VM3 () Int
    0)
  (define-fun C1_VM6 () Int
    1)
  (define-fun MemProv6 () Int
    3750)
  (define-fun ProcProv10 () Int
    2)
  (define-fun StorageProv4 () Int
    2000)
  (define-fun C2_VM1 () Int
    0)
  (define-fun ProcProv5 () Int
    4)
  (define-fun C5_VM7 () Int
    1)
  (define-fun MemProv1 () Int
    3750)
  (define-fun C5_VM5 () Int
    0)
  (define-fun StorageProv2 () Int
    2000)
  (define-fun MemProv9 () Int
    3750)
  (define-fun C5_VM3 () Int
    0)
  (define-fun C5_VM8 () Int
    1)
  (define-fun PriceProv3 () Int
    128)
  (define-fun PriceProv5 () Int
    252)
  (define-fun C2_VM5 () Int
    0)
  (define-fun C1_VM9 () Int
    0)
  (define-fun MemProv8 () Int
    7500)
  (define-fun PriceProv2 () Int
    128)
  (define-fun VM2Type () Int
    37)
  (define-fun ProcProv9 () Int
    2)
)
(objectives
 ( 32)
 ((+ 0
   PriceProv1
   PriceProv2
   PriceProv3
   PriceProv4
   PriceProv5
   PriceProv6
   PriceProv7
   PriceProv8
   PriceProv9
   PriceProv10) 1652)
)
(:added-eqs                   554671
 :arith-eq-adapter            77578
 :arith-bound-propagations-lp 643
 :arith-conflicts             30
 :arith-diseq                 408488
 :arith-fixed-eqs             15259
 :arith-lower                 358364
 :arith-make-feasible         62620
 :arith-max-columns           196
 :arith-max-rows              32
 :arith-upper                 513127
 :binary-propagations         1942786
 :conflicts                   4252
 :decisions                   168756
 :del-clause                  72496
 :final-checks                39
 :max-memory                  49.66
 :maxsat-cores                10
 :memory                      49.62
 :minimized-lits              41290
 :mk-bool-var                 146442
 :mk-clause                   75368
 :mk-clause-binary            7396
 :num-allocs                  293633048
 :num-checks                  63
 :pb-conflicts                2835
 :pb-predicates               767
 :pb-propagations             12202
 :pb-resolves                 2663
 :propagations                2684158
 :restarts                    27
 :rlimit-count                17921276
 :time                        1.05
 :total-time                  1.06)
